Max time = 14400.0
Tried aggregator 2 times.
MIP Presolve eliminated 5748 rows and 10 columns.
MIP Presolve modified 222 coefficients.
Aggregator did 48 substitutions.
Reduced MIP has 2227 rows, 18836 columns, and 131704 nonzeros.
Reduced MIP has 18798 binaries, 38 generals, 0 SOSs, and 0 indicators.
Presolve time = 1.46 sec. (123.25 ticks)
Tried aggregator 1 time.
Reduced MIP has 2227 rows, 18836 columns, and 131704 nonzeros.
Reduced MIP has 18798 binaries, 38 generals, 0 SOSs, and 0 indicators.
Presolve time = 0.53 sec. (53.06 ticks)
Probing time = 0.51 sec. (7.72 ticks)
Clique table members: 24897.
MIP emphasis: balance optimality and feasibility.
MIP search method: dynamic search.
Parallel mode: deterministic, using up to 4 threads.
Root relaxation solution time = 11.46 sec. (1115.66 ticks)

        Nodes                                         Cuts/
   Node  Left     Objective  IInf  Best Integer    Best Bound    ItCnt     Gap

      0     0       22.0000  2016                     22.0000        0                0     2       22.0000   832                     22.0000        0         
Elapsed time = 416.29 sec. (38034.05 ticks, tree = 0.01 MB, solutions = 0)       1     3       22.0000  1482                     22.0000    16848         
      2     3       22.0000  1578                     22.0000    18324         
      3     4       22.0000  1647                     22.0000    29119         
      5     5       22.0000  1631                     22.0000    46596         
      6     8       22.0000  1732                     22.0000    71851         
      7     5       22.0000  1631                     22.0000    46161         
      8    10       22.0000  1641                     22.0000    83523         
      9     6       22.0000  1694                     22.0000    58894         
     10     7       22.0000  1700                     22.0000    71862         
     13    11       22.0000  1677                     22.0000    96169         
Elapsed time = 991.63 sec. (79265.68 ticks, tree = 0.02 MB, solutions = 0)
     14    13       22.0000  1675                     22.0000   130847         
     16    13       22.0000  1757                     22.0000   121253         
     17    15       22.0000  1689                     22.0000   142729         
     18    16       22.0000  1792                     22.0000   155558         
     19    17       22.0000  1816                     22.0000   168991         
     20    19       22.0000  1632                     22.0000   185124         
     21    20       22.0000  1787                     22.0000   193667         
     22    21       22.0000  1652                     22.0000   204434         
     23    22       22.0000  1787                     22.0000   219630         
     24    23       22.0000  1670                     22.0000   232987         
Elapsed time = 1376.89 sec. (108123.74 ticks, tree = 0.09 MB, solutions = 0)
     25    24       22.0000  1756                     22.0000   241047         
     27    28       22.0000  1807                     22.0000   286838         
     30    27       22.0000  1747                     22.0000   278632         
     31    30       22.0000  1680                     22.0000   306123         
     33    30       22.0000  1652                     22.0000   310979         
     35    35       22.0000  1833                     22.0000   351591         
     37    37       22.0000  1631                     22.0000   374222         
     38    36       22.0000  1714                     22.0000   364671         
     39    38       22.0000  1775                     22.0000   377005               40    39       22.0000  1626                     22.0000   378191         
Elapsed time = 1953.79 sec. (146803.84 ticks, tree = 0.37 MB, solutions = 0)
     41    40       22.0000  1680                     22.0000   380910         
     43    42       22.0000  1826                     22.0000   383787         
     44    43       22.0000  1626                     22.0000   385672         
     47    45       22.0000  1715                     22.0000   387832         
     49    47       22.0000  1765                     22.0000   399144         
     52    43       22.0000  1588                     22.0000   392953         
     55    50       22.0000  1845                     22.0000   402755         
     58    45       22.0000  1612                     22.0000   396006         
     60    52       22.0000  1835                     22.0000   405166         
     62    48       22.0000  1589                     22.0000   398536         
Elapsed time = 2212.63 sec. (165609.12 ticks, tree = 0.42 MB, solutions = 0)
     64    53       22.0000  1825                     22.0000   407200         
     65    54       22.0000  1774                     22.0000   408268         
     67    55       22.0000  1744                     22.0000   409565         
     69    37       22.0000  1751                     22.0000   367234         
     71    57       22.0000  1726                     22.0000   411654         
     73    60       22.0000  1725                     22.0000   419881         
     76    61       22.0000  1782                     22.0000   421025         
     78    62       22.0000  1713                     22.0000   422577         
     79    64       22.0000  1331                     22.0000   424373         
     81    65       22.0000  1296                     22.0000   426523         
Elapsed time = 2410.98 sec. (178469.82 ticks, tree = 0.40 MB, solutions = 0)
     82    64       22.0000  1723                     22.0000   426428         
     85    65       22.0000  1738                     22.0000   427696         
     86    66       22.0000  1225                     22.0000   432567         
     88    67       22.0000  1718                     22.0000   431527         
     90    68       22.0000  1717                     22.0000   432819         
     91    68    infeasible                           22.0000   442914         
     94    79       22.0000  1623                     22.0000   458222         
     97    70       22.0000  1098                     22.0000   448658         
     99    71       22.0000  1032                     22.0000   452987         
    101    70    infeasible                           22.0000   455343         
Elapsed time = 2666.43 sec. (195730.52 ticks, tree = 0.58 MB, solutions = 0)
    104    83       22.0000  1528                     22.0000   468184         
    106    84       22.0000  1480                     22.0000   471584         
    107    87       22.0000  1428                     22.0000   495705         
    109    89       22.0000  1381                     22.0000   499568         
    110    81       22.0000  1014                     22.0000   479548         
    111    59       22.0000  1680                     22.0000   415502         
    114    81       22.0000  1002                     22.0000   484595         
    115    98       22.0000  1592                     22.0000   511029         
    117    98       22.0000   905                     22.0000   522439         
    119    97    infeasible                           22.0000   524201         
Elapsed time = 3024.23 sec. (221347.41 ticks, tree = 0.64 MB, solutions = 0)
    121    98       22.4857   964                     22.0000   528230         
    125   103       22.0000  1463                     22.0000   516702         
    127    98       22.0000  1850                     22.0000   531998         
    129    90       22.0000  1379                     22.0000   502492         
    131   105       22.0000  1346                     22.0000   521159         
    133   106       22.0000  1299                     22.0000   522777         
    135   105       22.0000  1278                     22.0000   528526         
    137   111    infeasible                           22.0000   542660         
    140   113       22.0000  1206                     22.0000   544190         
    143   113       22.0000  1193                     22.0000   546548         
Elapsed time = 3245.73 sec. (236221.99 ticks, tree = 0.99 MB, solutions = 0)
    146   112    infeasible                           22.0000   547992         
    148   108       22.0000  1071                     22.0000   537821         
    152   113    infeasible                           22.0000   551965         
    155   110       22.0000  1087                     22.0000   541248         
    157   114       22.0000  1112                     22.0000   556254         
    160   114    infeasible                           22.0000   558232         
    162   115       22.1176  1080                     22.0000   560609         
    166   115       22.1176  1082                     22.0000   562357         
    169   125       22.0000   980                     22.0000   567614         
    173   125       22.0000   979                     22.0000   569216         
Elapsed time = 3433.36 sec. (248693.76 ticks, tree = 1.28 MB, solutions = 0)
    175   117       22.1176   976                     22.0000   567736         
    179   127       22.0000   975                     22.0000   572936         
    182   127       22.2500  1009                     22.0000   575858         
    184   126    infeasible                           22.0000   577529         
    187   116       22.0000  1806                     22.0000   577521         
    188   129       22.0000  1802                     22.0000   601868         
    189   130       22.0000  1787                     22.0000   602516         
    190   128       22.6250   930                     22.0000   580391         
    192   130       22.6250   939                     22.0000   582148         
    201   144       22.2941   949                     22.0000   634478         
Elapsed time = 3694.25 sec. (266113.03 ticks, tree = 1.24 MB, solutions = 0)
    214   151    infeasible                           22.0000   643397         
    225   157       23.6490   911                     22.0000   654065         
    238   146       22.0000  1778                     22.0000   637374         
    253   149       22.0000  1717                     22.0000   641174         
    264   152       22.0000  1607                     22.0000   646001         
    274   191       22.0000  1875                     22.0000   727919         
    287   193       22.0000  1735                     22.0000   715725         
    299   164       22.0000  1355                     22.0000   660422         
    311   212       22.0000  1261                     22.0000   755982         
    318   205       22.0000  1556                     22.0000   728666         
Elapsed time = 4301.82 sec. (308069.37 ticks, tree = 2.08 MB, solutions = 0)
    323   220       22.0000   968                     22.0000   769753         
    326   217    infeasible                           22.0000   778825         
    339   228       22.0000  1694                     22.0000   772780         
    355   218       22.0000  1314                     22.0000   768507         
    372   223       22.0000  1293                     22.0000   774246         
    388   260    infeasible                           22.0000   846120         
    410   256       22.0000  1394                     22.0000   805713         
    430   250       22.0000  1485                     22.0000   794159         
    452   269       22.0000   871                     22.0000   866382         
    471   286    infeasible                           22.0000   892705         
Elapsed time = 4921.10 sec. (347909.48 ticks, tree = 3.39 MB, solutions = 0)
    481   270    infeasible                           22.0000   881359         
    493   359       22.0000  1214                     22.0000   962367         
    507   364       22.0000  1165                     22.0000   968430         
    519   368       22.0000  1108                     22.0000   974825         
    532   374       22.0000  1006                     22.0000   982967         
    552   380       22.0940   988                     22.0000   993068         
    566   382       22.3224   987                     22.0000  1002721         
    581   367       22.0000  1586                     22.0000  1025078         
    597   374       22.0000  1572                     22.0000  1029497         
    617   394       22.8000   840                     22.0000  1084572         
Elapsed time = 5556.09 sec. (388667.83 ticks, tree = 4.79 MB, solutions = 0)
    631   394       24.0000   902                     22.0000  1093449         
    657   400    infeasible                           22.0000  1103729         
    674   389       22.0000  1474                     22.0000  1039731         
    686   397       22.0000  1448                     22.0000  1045009         
    702   496    infeasible                           22.0000  1288329         
    728   526    infeasible                           22.0000  1317426         
    750   503       22.0000  1450                     22.0000  1297155         
    769   495       22.0000  1296                     22.0000  1209799         
    790   539       22.0000  1020                     22.0000  1339271         
    808   513    infeasible                           22.0000  1312735         
Elapsed time = 6205.32 sec. (428735.63 ticks, tree = 6.24 MB, solutions = 0)
    826   516       22.0000  1354                     22.0000  1317841         
    837   610       22.0000  1321                     22.0000  1465760         
    854   641       22.0064   907                     22.0000  1530029         
    872   569       22.1990   939                     22.0000  1388393         
    902   649       22.0153   900                     22.0000  1550374         
    926   608       22.0000  1578                     22.0000  1476577         
    939   655       22.1687   885                     22.0000  1570458         
    959   678       22.0000  1041                     22.0000  1606555         
    980   658       25.3913   859                     22.0000  1583611         
   1009   660       22.0000  1330                     22.0000  1589873         
Elapsed time = 6829.05 sec. (468923.65 ticks, tree = 8.92 MB, solutions = 0)
   1024   688       22.1622   870                     22.0000  1633942         
   1037   663       22.0000  1291                     22.0000  1595990         
   1052   704       26.0000   710                     22.0000  1655567         
   1077   786    infeasible                           22.0000  1831175         
   1096   790       22.0000  1315                     22.0000  1837034         
   1129   778       24.0000   126                     22.0000  1769098         
*  1140   746      integral     0       24.0000       22.0000  1774259    8.33%
   1156   727       22.0000  1120       24.0000       22.0000  1878732    8.33%
   1189   818       22.0000  1318       24.0000       22.0000  1850179    8.33%
   1207   781       22.3684   990       24.0000       22.0000  1818968    8.33%
   1219   748       22.0000  1361       24.0000       22.0000  1901487    8.33%
Elapsed time = 7435.47 sec. (509431.50 ticks, tree = 9.14 MB, solutions = 1)
   1252   759       22.0000  1326       24.0000       22.0000  1907105    8.33%
   1285   753       22.0000  1127       24.0000       22.0000  1951235    8.33%
   1325   869       22.0000  1194       24.0000       22.0000  2035813    8.33%
   1352   878       22.0000  1115       24.0000       22.0000  2040915    8.33%
   1367   832       22.0000   899       24.0000       22.0000  2014744    8.33%
*  1372+  746                           22.0000       22.0000             0.00%
   1386   895       22.0000  1017       22.0000       22.0000  2058046    0.00%
   1397   833    infeasible             22.0000       22.0000  2031277    0.00%

Root node processing (before b&c):
  Real time             =  415.67 sec. (37971.97 ticks)
Parallel b&c, 4 threads:
  Real time             = 7250.15 sec. (502893.51 ticks)
  Sync time (average)   =  473.73 sec.
  Wait time (average)   =    0.02 sec.
                          ------------
Total (root+branch&cut) = 7665.81 sec. (540865.48 ticks)
P#1 = 1.0
P#20 = 1.0
P#28 = 1.0
P#35 = 1.0
P#41 = 1.0
P#50 = 1.0
P#57 = 1.0
P#59 = 1.0
P#66 = 1.0000000000000255
P#92 = 1.0
P#111 = 1.0
P#112 = 1.0
P#131 = 1.0
P#157 = 1.0
P#164 = 1.0
P#166 = 1.0
P#173 = 1.0
P#182 = 1.0
P#188 = 1.0
P#195 = 1.0
P#203 = 1.0
P#222 = 1.0
P#167 = 1.0
P#56 = 1.0
X#1#188 = 1.0
X#2#131 = 1.0
X#3#111 = 1.0
X#4#57 = 1.0
X#5#195 = 1.0
X#6#59 = 1.0
X#7#112 = 1.0
X#8#20 = 1.0
X#9#182 = 1.0
X#10#173 = 1.0
X#11#28 = 1.0
X#12#50 = 1.0
X#13#41 = 1.0
X#14#1 = 1.0
X#15#35 = 1.0
X#16#157 = 1.0
X#17#164 = 1.0
X#18#166 = 1.0
X#19#167 = 1.0
X#20#92 = 1.0
X#21#222 = 1.0
X#22#203 = 1.0
X#23#56 = 1.0
X#24#66 = 1.0000000000000255
L#1#1 = 1.0
L#1#3 = 1.0
L#1#5 = 1.0
L#1#7 = 1.0
L#1#9 = 1.0
L#1#11 = 1.0
L#1#12 = 1.0
L#1#14 = 1.0
L#1#16 = 1.0
L#1#18 = 1.0
L#1#20 = 1.0
L#1#22 = 1.0
L#2#1 = 1.0
L#2#3 = 1.0
L#2#5 = 1.0
L#2#8 = 1.0
L#2#10 = 1.0
L#2#12 = 1.0
L#2#14 = 1.0
L#2#16 = 1.0
L#2#18 = 1.0
L#2#20 = 1.0
L#2#22 = 1.0
L#3#2 = 1.0
L#3#3 = 1.0
L#3#5 = 1.0
L#3#7 = 1.0
L#3#9 = 1.0
L#3#11 = 1.0
L#3#13 = 1.0
L#3#15 = 1.0
L#3#17 = 1.0
L#3#19 = 1.0
L#3#21 = 1.0
L#3#23 = 1.0
L#4#2 = 1.0
L#4#4 = 1.0
L#4#6 = 1.0
L#4#8 = 1.0
L#4#10 = 1.0
L#4#12 = 1.0
L#4#14 = 1.0
L#4#16 = 1.0
L#4#18 = 1.0
L#4#20 = 1.0
L#4#21 = 1.0
L#4#23 = 1.0
L#5#1 = 1.0
L#5#3 = 1.0
L#5#5 = 1.0
L#5#7 = 1.0
L#5#9 = 1.0
L#5#10 = 1.0
L#5#12 = 1.0
L#5#14 = 1.0
L#5#16 = 1.0
L#5#18 = 1.0
L#5#20 = 1.0
L#5#22 = 1.0
L#6#2 = 1.0
L#6#4 = 1.0
L#6#6 = 1.0
L#6#8 = 1.0
L#6#10 = 1.0
L#6#12 = 1.0
L#6#14 = 1.0
L#6#16 = 1.0
L#6#18 = 1.0
L#6#19 = 1.0
L#6#21 = 1.0
L#6#23 = 1.0
L#7#1 = 1.0
L#7#4 = 1.0
L#7#6 = 1.0
L#7#8 = 1.0
L#7#10 = 1.0
L#7#12 = 1.0
L#7#14 = 1.0
L#7#16 = 1.0
L#7#18 = 1.0
L#7#20 = 1.0
L#7#22 = 1.0
L#8#2 = 1.0
L#8#4 = 1.0
L#8#6 = 1.0
L#8#9 = 1.0
L#8#11 = 1.0
L#8#13 = 1.0
L#8#15 = 1.0
L#8#17 = 1.0
L#8#19 = 1.0
L#8#21 = 1.0
L#8#23 = 1.0
L#9#1 = 1.0
L#9#3 = 1.0
L#9#5 = 1.0
L#9#7 = 1.0
L#9#9 = 1.0
L#9#11 = 1.0
L#9#13 = 1.0
L#9#14 = 1.0
L#9#16 = 1.0
L#9#18 = 1.0
L#9#20 = 1.0
L#9#22 = 1.0
L#10#1 = 1.0
L#10#3 = 1.0
L#10#5 = 1.0
L#10#7 = 1.0
L#10#9 = 1.0
L#10#11 = 1.0
L#10#13 = 1.0
L#10#15 = 1.0
L#10#17 = 1.0
L#10#18 = 1.0
L#10#20 = 1.0
L#10#22 = 1.0
L#11#2 = 1.0
L#11#4 = 1.0
L#11#6 = 1.0
L#11#8 = 1.0
L#11#11 = 1.0
L#11#13 = 1.0
L#11#15 = 1.0
L#11#17 = 0.9999999999999793
L#11#19 = 1.0
L#11#21 = 1.0
L#11#23 = 1.0
L#12#2 = 1.0
L#12#4 = 1.0
L#12#6 = 1.0
L#12#8 = 1.0
L#12#10 = 0.9999999999999227
L#12#12 = 1.0
L#12#14 = 1.0
L#12#16 = 1.0
L#12#19 = 1.0
L#12#21 = 1.0
L#12#23 = 1.0
L#13#2 = 1.0
L#13#4 = 1.0
L#13#6 = 1.0
L#13#8 = 1.0
L#13#10 = 1.0
L#13#12 = 1.0
L#13#15 = 1.0
L#13#17 = 1.0
L#13#19 = 1.0
L#13#21 = 1.0
L#13#23 = 1.0
L#14#2 = 1.0
L#14#5 = 1.0
L#14#7 = 1.0
L#14#9 = 1.0
L#14#11 = 1.0
L#14#13 = 1.0
L#14#15 = 1.0
L#14#17 = 1.0
L#14#19 = 1.0
L#14#21 = 1.0
L#14#23 = 1.0
L#15#2 = 1.0
L#15#4 = 1.0
L#15#6 = 1.0
L#15#8 = 1.0
L#15#10 = 1.0
L#15#13 = 1.0
L#15#15 = 1.0
L#15#17 = 1.0
L#15#19 = 1.0
L#15#21 = 1.0
L#15#23 = 1.0
L#16#1 = 1.0
L#16#3 = 1.0
L#16#5 = 1.0
L#16#7 = 1.0
L#16#9 = 1.0000000000000626
L#16#11 = 0.9999999999999396
L#16#13 = 1.0
L#16#16 = 1.0
L#16#18 = 1.0
L#16#20 = 0.9999999999999922
L#16#22 = 1.0
L#17#1 = 1.0
L#17#3 = 1.0
L#17#5 = 1.0
L#17#7 = 1.0
L#17#9 = 1.0
L#17#11 = 1.0
L#17#13 = 1.0
L#17#15 = 1.0
L#17#17 = 1.0
L#17#20 = 1.0
L#17#22 = 1.0
L#18#1 = 1.0
L#18#3 = 1.0
L#18#5 = 1.0
L#18#7 = 1.0
L#18#9 = 1.0
L#18#11 = 1.0
L#18#13 = 1.0
L#18#15 = 1.0
L#18#17 = 1.0
L#18#19 = 1.0
L#18#22 = 1.0
L#19#1 = 1.0
L#19#3 = 1.0
L#19#5 = 1.0
L#19#7 = 1.0
L#19#9 = 1.0
L#19#11 = 1.0
L#19#13 = 1.0
L#19#15 = 1.0
L#19#17 = 1.0
L#19#19 = 1.0
L#19#21 = 1.0
L#19#23 = 1.0
L#20#2 = 1.0
L#20#4 = 1.0
L#20#6 = 1.0
L#20#7 = 1.0
L#20#9 = 1.0
L#20#11 = 1.0
L#20#13 = 1.0
L#20#15 = 1.0
L#20#17 = 1.0
L#20#19 = 1.0
L#20#21 = 1.0
L#20#23 = 1.0
L#21#1 = 1.0
L#21#3 = 1.0
L#21#4 = 1.0
L#21#6 = 1.0
L#21#8 = 1.0
L#21#10 = 1.0
L#21#12 = 1.0
L#21#14 = 1.0
L#21#16 = 1.0
L#21#18 = 1.0
L#21#20 = 1.0
L#21#22 = 1.0
L#22#1 = 1.0
L#22#3 = 1.0
L#22#5 = 1.0
L#22#7 = 1.0
L#22#8 = 1.0
L#22#10 = 1.0
L#22#12 = 1.0
L#22#14 = 1.0
L#22#16 = 1.0
L#22#18 = 1.0
L#22#20 = 1.0
L#22#22 = 1.0
L#23#2 = 1.0
L#23#4 = 1.0
L#23#6 = 1.0
L#23#8 = 1.0
L#23#10 = 1.0
L#23#12 = 1.0
L#23#14 = 1.0
L#23#16 = 1.0
L#23#18 = 1.0
L#23#20 = 1.0
L#23#22 = 1.0
L#24#2 = 1.0000000000000255
L#24#4 = 1.0
L#24#6 = 0.9999999999999398
L#24#8 = 1.0000000000000255
L#24#10 = 1.0
L#24#12 = 1.0000000000000604
L#24#14 = 1.0
L#24#15 = 1.0000000000000904
L#24#17 = 0.9999999999999793
L#24#19 = 1.0
L#24#21 = 1.0000000000000604
L#24#23 = 1.0
F#1#2#11 = 1.0
F#3#1#21 = 1.0
F#1#4#22 = 1.0
F#5#1#10 = 1.0
F#1#6#5 = 1.0
F#1#7#7 = 1.0
F#8#1#19 = 1.0
F#9#1#13 = 1.0
F#10#1#17 = 1.0
F#1#11#18 = 1.0
F#12#1#6 = 1.0
F#1#13#1 = 1.0
F#14#1#15 = 1.0
F#15#1#2 = 1.0000000000000078
F#1#16#12 = 0.9999999999997975
F#1#17#16 = 1.0
F#1#18#14 = 0.9999999999998053
F#19#1#23 = 1.0
F#1#20#20 = 0.9999999999999922
F#21#1#8 = 1.0
F#1#22#9 = 1.0
F#23#1#4 = 1.0
F#1#24#3 = 1.0000000000000167
F#2#3#16 = 1.0
F#4#2#2 = 1.0
F#5#2#9 = 0.9999999999998517
F#2#6#22 = 1.0
F#2#7#5 = 1.0
F#2#8#18 = 1.0
F#2#9#10 = 0.9999999999998517
F#2#10#14 = 0.9999999999999237
F#11#2#21 = 1.0000000000000762
F#2#12#3 = 1.0
F#13#2#19 = 1.0
F#14#2#17 = 0.9999999999997405
F#2#15#20 = 1.0
F#2#16#8 = 1.0
F#2#17#12 = 1.0
F#18#2#13 = 1.0
F#19#2#15 = 0.9999999999997405
F#20#2#23 = 1.0
F#21#2#4 = 1.0
F#22#2#7 = 0.9999999999998517
F#23#2#6 = 1.0
F#2#24#1 = 1.0
F#3#4#11 = 1.0
F#5#3#18 = 1.0
F#6#3#10 = 1.0
F#3#7#15 = 1.0
F#3#8#5 = 0.9999999999998263
F#9#3#20 = 0.9999999999999922
F#3#10#2 = 0.9999999999997176
F#11#3#6 = 1.0
F#12#3#12 = 1.0
F#3#13#9 = 1.0000000000000762
F#3#14#3 = 1.0
F#15#3#8 = 1.0
F#3#16#19 = 1.0
F#17#3#22 = 1.0
F#3#18#23 = 0.9999999999999378
F#19#3#1 = 0.9999999999997176
F#20#3#4 = 1.0
F#3#21#13 = 0.9999999999998755
F#3#22#17 = 1.0000000000003673
F#23#3#14 = 1.0000000000000207
F#3#24#7 = 0.9999999999999752
F#5#4#3 = 1.0
F#6#4#19 = 1.0
F#7#4#1 = 1.0
F#4#8#12 = 1.0
F#9#4#5 = 1.0
F#4#10#8 = 1.0
F#4#11#16 = 1.0
F#4#12#20 = 1.0
F#4#13#18 = 1.0
F#14#4#13 = 0.9999999999998249
F#15#4#17 = 1.0
F#4#16#6 = 1.0
F#17#4#9 = 1.0
F#18#4#7 = 1.0
F#4#19#10 = 1.0
F#4#20#14 = 1.0
F#4#21#23 = 1.0
F#4#22#4 = 1.0
F#4#23#21 = 1.0
F#24#4#15 = 1.0000000000000904
F#5#6#7 = 0.9999999999997291
F#7#5#4 = 1.0
F#5#8#20 = 1.0
F#5#9#12 = 1.0
F#10#5#11 = 1.0000000000000404
F#11#5#19 = 1.0
F#12#5#21 = 1.0000000000000762
F#13#5#2 = 1.0
F#5#14#22 = 1.0
F#5#15#1 = 1.0
F#16#5#13 = 1.0
F#5#17#14 = 1.0000000000000826
F#18#5#17 = 1.0
F#5#19#16 = 1.00000000000002
F#20#5#15 = 1.0000000000000404
F#21#5#6 = 0.9999999999997451
F#22#5#8 = 1.0
F#5#23#5 = 1.000000000000016
F#24#5#23 = 1.0
F#6#7#21 = 1.0
F#8#6#13 = 1.0
F#6#9#6 = 0.9999999999996043
F#6#10#4 = 0.999999999999988
F#11#6#15 = 1.0000000000001108
F#6#12#18 = 1.000000000000175
F#13#6#17 = 1.0
F#6#14#8 = 1.0
F#6#15#14 = 1.0
F#6#16#23 = 1.0
F#17#6#3 = 0.9999999999997293
F#18#6#9 = 0.9999999999999198
F#19#6#11 = 1.0
F#6#20#12 = 1.0000000000002098
F#6#21#2 = 0.9999999999999841
F#22#6#1 = 1.0
F#23#6#20 = 1.0000000000000167
F#6#24#16 = 1.0000000000000533
F#8#7#17 = 1.0
F#7#9#8 = 0.9999999999999702
F#10#7#13 = 1.0
F#11#7#23 = 1.0
F#7#12#22 = 1.0
F#7#13#20 = 1.0
F#7#14#14 = 0.999999999999962
F#7#15#16 = 0.999999999999901
F#16#7#9 = 1.0000000000000626
F#7#17#10 = 0.9999999999996239
F#18#7#11 = 0.9999999999997888
F#7#19#12 = 0.999999999999895
F#7#20#18 = 1.0
F#21#7#3 = 1.0
F#7#22#6 = 1.0
F#23#7#2 = 1.0
F#24#7#19 = 1.0
F#8#9#2 = 0.99999999999961
F#8#10#23 = 0.99999999999961
F#8#11#9 = 1.0
F#12#8#14 = 1.0
F#13#8#8 = 1.0
F#8#14#4 = 1.000000000000237
F#15#8#10 = 0.9999999999997118
F#8#16#21 = 1.0
F#17#8#1 = 1.0000000000001137
F#8#18#6 = 1.0
F#19#8#3 = 0.9999999999999948
F#20#8#7 = 1.00000000000003
F#8#21#15 = 0.9999999999999538
F#22#8#22 = 1.0
F#23#8#16 = 1.0
F#8#24#11 = 1.0
F#10#9#15 = 0.9999999999999237
F#9#11#3 = 0.999999999999721
F#9#12#1 = 1.0000000000001137
F#9#13#22 = 1.0
F#14#9#19 = 1.0
F#15#9#23 = 0.9999999999996722
F#9#16#14 = 0.9999999999999236
F#17#9#17 = 1.0
F#9#18#16 = 0.9999999999999467
F#9#19#18 = 1.0000000000000155
F#20#9#21 = 0.9999999999998813
F#9#21#9 = 0.9999999999998552
F#9#22#11 = 1.0
F#9#23#7 = 0.9999999999999236
F#24#9#4 = 1.0
F#10#11#22 = 1.0
F#10#12#7 = 1.000000000000241
F#13#10#6 = 1.0000000000000537
F#14#10#21 = 0.9999999999998276
F#10#15#3 = 1.0000000000000395
F#16#10#16 = 1.0
F#10#17#18 = 1.0
F#18#10#19 = 1.0
F#10#19#20 = 1.0
F#10#20#1 = 0.9999999999997287
F#21#10#10 = 1.0
F#22#10#12 = 1.0000000000000466
F#10#23#9 = 0.9999999999999236
F#10#24#5 = 0.999999999999988
F#11#12#13 = 1.0
F#13#11#10 = 1.0
F#14#11#7 = 1.0000000000003022
F#11#15#11 = 1.0
F#16#11#1 = 1.0000000000001137
F#17#11#5 = 0.9999999999999317
F#11#18#2 = 0.9999999999997466
F#11#19#4 = 1.000000000000237
F#11#20#8 = 1.0
F#21#11#14 = 1.0
F#22#11#20 = 1.0
F#11#23#17 = 0.9999999999999793
F#24#11#12 = 1.0000000000000604
F#12#13#16 = 0.999999999999901
F#12#14#10 = 0.9999999999999227
F#15#12#15 = 1.0000000000000207
F#16#12#5 = 1.000000000000016
F#12#17#4 = 1.0
F#12#18#8 = 1.0
F#19#12#9 = 0.9999999999999796
F#20#12#11 = 0.9999999999999227
F#12#21#19 = 0.9999999999998644
F#12#22#2 = 1.0
F#12#23#23 = 1.0
F#24#12#17 = 1.0000000000003466
F#14#13#11 = 1.0000000000001354
F#13#15#12 = 1.0
F#16#13#3 = 1.0000000000001137
F#17#13#7 = 0.99999999999983
F#13#18#4 = 1.0
F#19#13#5 = 0.999999999999818
F#20#13#13 = 1.0
F#13#21#21 = 1.0
F#13#22#23 = 1.0
F#13#23#15 = 1.0
F#24#13#14 = 1.0
F#15#14#6 = 0.9999999999998592
F#16#14#20 = 0.9999999999999922
F#14#17#23 = 1.0
F#18#14#1 = 0.9999999999997098
F#14#19#2 = 0.9999999999997176
F#14#20#5 = 1.0
F#21#14#16 = 1.0
F#22#14#18 = 1.0000000000001
F#23#14#12 = 1.0000000000000466
F#14#24#9 = 1.0000000000000533
F#15#16#4 = 1.0
F#15#17#21 = 0.999999999999918
F#18#15#5 = 0.9999999999998685
F#19#15#7 = 0.9999999999998685
F#20#15#9 = 1.0
F#21#15#18 = 1.0000000000000524
F#15#22#19 = 1.0000000000001892
F#23#15#22 = 1.0
F#15#24#13 = 1.0000000000000207
F#17#16#15 = 1.0
F#16#18#18 = 1.0
F#19#16#17 = 0.9999999999999742
F#16#20#22 = 1.0
F#16#21#7 = 0.999999999999769
F#22#16#10 = 1.0
F#16#23#11 = 0.9999999999999396
F#24#16#2 = 1.0
F#17#18#20 = 1.0
F#19#17#19 = 0.9999999999997427
F#20#17#2 = 1.0
F#17#21#11 = 0.9999999999999121
F#17#22#13 = 1.0
F#23#17#8 = 1.0000000000000284
F#24#17#6 = 1.0000000000000542
F#19#18#21 = 0.9999999999998276
F#18#20#3 = 0.9999999999997287
F#21#18#12 = 0.9999999999997975
F#18#22#15 = 0.9999999999998179
F#23#18#10 = 1.0
F#18#24#22 = 1.0
F#20#19#6 = 0.9999999999999948
F#21#19#22 = 1.0
F#22#19#14 = 1.0
F#19#23#13 = 1.0000000000000207
F#24#19#8 = 1.0000000000000255
F#20#21#17 = 1.0
F#22#20#16 = 1.0
F#20#23#19 = 1.0
F#24#20#10 = 1.0
F#22#21#5 = 1.000000000000016
F#21#23#1 = 1.0
F#21#24#20 = 1.0
F#22#23#3 = 1.000000000000016
F#24#22#21 = 1.0000000000000604
F#23#24#18 = 0.9999999999998901
VC#1#2 = 3.0
VC#1#3 = 1.0
VC#2#2 = 4.0
VC#2#3 = 1.9999999999998517
VC#3#2 = 3.99999999999966
VC#3#3 = 1.0
VC#4#2 = 3.0
VC#4#3 = 1.0000000000000904
VC#5#2 = 3.999999999999905
VC#5#3 = 2.0
VC#6#2 = 3.0
VC#6#3 = 2.0
VC#7#2 = 3.0
VC#7#3 = 2.0
VC#8#2 = 4.000000000000024
VC#8#3 = 2.0
VC#9#2 = 3.0
VC#9#3 = 1.0
VC#10#2 = 3.000000000000333
VC#10#3 = 0.9999999999999323
VC#11#2 = 2.9999999999999876
VC#11#3 = 2.0
VC#12#2 = 4.0
VC#12#3 = 1.0
VC#13#2 = 4.0
VC#13#3 = 1.0
VC#14#2 = 3.9999999999998437
VC#14#3 = 2.0
VC#15#1 = 7.0
VC#15#3 = 1.0
VC#16#1 = 7.0
VC#16#3 = 2.0
VC#17#1 = 7.0
VC#17#3 = 2.0
VC#18#1 = 7.0
VC#18#3 = 1.0
VC#19#1 = 7.0
VC#19#3 = 2.000000000000005
VC#20#1 = 7.0
VC#20#3 = 2.0
VC#21#1 = 7.0
VC#21#3 = 1.0000000000001243
VC#22#1 = 7.0
VC#22#2 = 3.0
VC#23#1 = 7.0
VC#23#2 = 4.0000000000000835
VC#24#1 = 7.0
VC#24#2 = 3.0000000000000204
LC#1#2 = 4.0
LC#1#3 = 2.0
LC#2#2 = 3.0
LC#2#3 = 1.0000000000001483
LC#3#2 = 3.00000000000034
LC#3#3 = 2.0
LC#4#2 = 4.0
LC#4#3 = 1.9999999999999096
LC#5#2 = 3.000000000000095
LC#5#3 = 1.0
LC#6#2 = 4.0
LC#6#3 = 1.0
LC#7#2 = 4.0
LC#7#3 = 1.0
LC#8#2 = 2.999999999999976
LC#8#3 = 1.0
LC#9#2 = 4.0
LC#9#3 = 2.0
LC#10#2 = 3.999999999999667
LC#10#3 = 2.0000000000000675
LC#11#2 = 4.000000000000012
LC#11#3 = 1.0
LC#12#2 = 3.0
LC#12#3 = 2.0
LC#13#2 = 3.0
LC#13#3 = 2.0
LC#14#2 = 3.0000000000001563
LC#14#3 = 1.0
LC#15#1 = 7.0
LC#15#3 = 2.0
LC#16#1 = 7.0
LC#16#3 = 1.0
LC#17#1 = 7.0
LC#17#3 = 1.0
LC#18#1 = 7.0
LC#18#3 = 2.0
LC#19#1 = 7.0
LC#19#3 = 0.9999999999999951
LC#20#1 = 7.0
LC#20#3 = 1.0
LC#21#1 = 7.0
LC#21#3 = 1.9999999999998757
LC#22#1 = 7.0
LC#22#2 = 4.0
LC#23#1 = 7.0
LC#23#2 = 2.9999999999999165
LC#24#1 = 7.0
LC#24#2 = 3.9999999999999796
